c description: Perfect Matching Principle on 
c generator: CNFgen (0.9.0)
c copyright: (C) 2012-2020 Massimo Lauria <massimo.lauria@uniroma1.it>
c url: https://massimolauria.net/cnfgen
c
p cnf 40 118
1 0
2 0
-3 -4 0
3 4 0
-5 -6 0
-5 -7 0
-5 -8 0
-6 -7 0
-6 -8 0
-7 -8 0
5 6 7 8 0
3 0
0
-9 -10 0
9 10 0
2 0
-11 -12 0
-11 -13 0
-11 -14 0
-11 -15 0
-12 -13 0
-12 -14 0
-12 -15 0
-13 -14 0
-13 -15 0
-14 -15 0
11 12 13 14 15 0
-16 -17 0
-16 -18 0
-16 -19 0
-17 -18 0
-17 -19 0
-18 -19 0
16 17 18 19 0
-5 -11 0
-5 -20 0
-11 -20 0
5 11 20 0
0
21 0
-22 -23 0
-22 -24 0
-23 -24 0
22 23 24 0
0
-1 -25 0
1 25 0
12 0
-9 -26 0
-9 -27 0
-26 -27 0
9 26 27 0
-10 -28 0
-10 -29 0
-28 -29 0
10 28 29 0
-16 -26 0
16 26 0
-27 -30 0
-27 -31 0
-30 -31 0
27 30 31 0
-17 -22 0
-17 -32 0
-22 -32 0
17 22 32 0
-30 -33 0
-30 -34 0
-30 -35 0
-33 -34 0
-33 -35 0
-34 -35 0
30 33 34 35 0
13 0
-14 -25 0
-14 -33 0
-14 -36 0
-14 -37 0
-25 -33 0
-25 -36 0
-25 -37 0
-33 -36 0
-33 -37 0
-36 -37 0
14 25 33 36 37 0
-6 -21 0
-6 -31 0
-21 -31 0
6 21 31 0
0
-15 -32 0
-15 -38 0
-32 -38 0
15 32 38 0
-18 -36 0
-18 -38 0
-36 -38 0
18 36 38 0
0
-7 -23 0
-7 -37 0
-23 -37 0
7 23 37 0
-19 -39 0
19 39 0
-20 -34 0
20 34 0
-8 -40 0
8 40 0
0
40 0
4 0
28 0
-24 -35 0
-24 -39 0
-35 -39 0
24 35 39 0
29 0